# Solution for model micodag
# Objective value = 1.9836992547250752e+01
s_0_1 0
s_1_0 0
s_0_2 0
s_2_0 2.1965353890955264e-01
s_1_2 0
s_2_1 1.6715805798194561e-01
s_1_3 0
s_3_1 1.9873954501424063e-01
s_1_9 0
s_9_1 0
s_1_12 0
s_12_1 0.657345892925771
s_1_13 0
s_13_1 2.5134179863816719e-01
s_2_3 0
s_3_2 2.6912073718071783e-01
s_2_4 0
s_4_2 3.1014834301509664e-01
s_2_6 0
s_6_2 0
s_2_8 0
s_8_2 1.7602617496800343e-01
s_3_4 0
s_4_3 5.5650822664803812e-01
s_3_6 0
s_6_3 0
s_3_7 0
s_7_3 0
s_3_8 0
s_8_3 3.6026948851085860e-01
s_3_9 0
s_9_3 3.2318901770536757e-01
s_3_12 0
s_12_3 0
s_3_13 0
s_13_3 3.6482277452742684e-01
s_4_5 0
s_5_4 0
s_4_6 0
s_6_4 4.5407694548321142e-01
s_4_7 0
s_7_4 0
s_4_8 0
s_8_4 0
s_4_11 0
s_11_4 4.1481347112989964e-01
s_5_6 0
s_6_5 0.723658189455838
s_5_7 0
s_7_5 0.542939387645252
s_5_14 0
s_14_5 3.3641982982838803e-01
s_6_8 0
s_8_6 4.7911250679426676e-01
s_7_8 0
s_8_7 0
s_7_9 0
s_9_7 2.5887953777481743e-01
s_7_10 0
s_10_7 2.0711167338032332e-01
s_7_11 0
s_11_7 4.2403319184050448e-01
s_8_11 0
s_11_8 2.3628731610088671e-01
s_9_12 0
s_12_9 3.6487887234925553e-01
s_12_13 0
s_13_12 2.5614191667306407e-01
s_0_0 9.9801832377841793e-01
s_1_1 6.9352966520038217e-01
s_2_2 6.8000750054990666e-01
s_3_3 6.2978649919574448e-01
s_4_4 1.0143914853453317e+00
s_5_5 7.2549284564785310e-01
s_6_6 1.0386324438029924e+00
s_7_7 9.3070792107466982e-01
s_8_8 6.4223316561842037e-01
s_9_9 9.8444118614118548e-01
s_10_10 6.8090107290446067e-01
s_11_11 6.1416020865528287e-01
s_12_12 9.2607136149874192e-01
s_13_13 6.9012728425150760e-01
s_14_14 1.0438121218205634e+00
Gamma_0_0 9.9900867052214215e-01
Gamma_0_1 0
Gamma_0_2 0
Gamma_0_3 0
Gamma_0_4 0
Gamma_0_5 0
Gamma_0_6 0
Gamma_0_7 0
Gamma_0_8 0
Gamma_0_9 0
Gamma_0_10 0
Gamma_0_11 0
Gamma_0_12 0
Gamma_0_13 0
Gamma_0_14 0
Gamma_1_0 0
Gamma_1_1 8.3278428491439616e-01
Gamma_1_2 0
Gamma_1_3 0
Gamma_1_4 0
Gamma_1_5 0
Gamma_1_6 0
Gamma_1_7 0
Gamma_1_8 0
Gamma_1_9 0
Gamma_1_10 0
Gamma_1_11 0
Gamma_1_12 0
Gamma_1_13 0
Gamma_1_14 0
Gamma_2_0 -4.6867210169750168e-01
Gamma_2_1 -0.408849676509529
Gamma_2_2 8.2462567298739109e-01
Gamma_2_3 0
Gamma_2_4 0
Gamma_2_5 0
Gamma_2_6 0
Gamma_2_7 0
Gamma_2_8 0
Gamma_2_9 0
Gamma_2_10 0
Gamma_2_11 0
Gamma_2_12 0
Gamma_2_13 0
Gamma_2_14 0
Gamma_3_0 0
Gamma_3_1 4.4580213661919743e-01
Gamma_3_2 5.1876848129075737e-01
Gamma_3_3 7.9359088905792341e-01
Gamma_3_4 0
Gamma_3_5 0
Gamma_3_6 0
Gamma_3_7 0
Gamma_3_8 0
Gamma_3_9 0
Gamma_3_10 0
Gamma_3_11 0
Gamma_3_12 0
Gamma_3_13 0
Gamma_3_14 0
Gamma_4_0 0
Gamma_4_1 0
Gamma_4_2 5.5690963631014467e-01
Gamma_4_3 7.4599478996038515e-01
Gamma_4_4 1.0071700379505597e+00
Gamma_4_5 0
Gamma_4_6 0
Gamma_4_7 0
Gamma_4_8 0
Gamma_4_9 0
Gamma_4_10 0
Gamma_4_11 0
Gamma_4_12 0
Gamma_4_13 0
Gamma_4_14 0
Gamma_5_0 0
Gamma_5_1 0
Gamma_5_2 0
Gamma_5_3 0
Gamma_5_4 0
Gamma_5_5 8.5175867805843564e-01
Gamma_5_6 0
Gamma_5_7 0
Gamma_5_8 0
Gamma_5_9 0
Gamma_5_10 0
Gamma_5_11 0
Gamma_5_12 0
Gamma_5_13 0
Gamma_5_14 0
Gamma_6_0 0
Gamma_6_1 0
Gamma_6_2 0
Gamma_6_3 0
Gamma_6_4 -6.7385231726485251e-01
Gamma_6_5 8.5068101510251071e-01
Gamma_6_6 1.0191331825639829e+00
Gamma_6_7 0
Gamma_6_8 0
Gamma_6_9 0
Gamma_6_10 0
Gamma_6_11 0
Gamma_6_12 0
Gamma_6_13 0
Gamma_6_14 0
Gamma_7_0 0
Gamma_7_1 0
Gamma_7_2 0
Gamma_7_3 0
Gamma_7_4 0
Gamma_7_5 -7.3684420853071242e-01
Gamma_7_6 0
Gamma_7_7 9.6473204625671583e-01
Gamma_7_8 0
Gamma_7_9 0
Gamma_7_10 0
Gamma_7_11 0
Gamma_7_12 0
Gamma_7_13 0
Gamma_7_14 0
Gamma_8_0 0
Gamma_8_1 0
Gamma_8_2 4.1955473417422440e-01
Gamma_8_3 6.0022453174696189e-01
Gamma_8_4 0
Gamma_8_5 0
Gamma_8_6 -6.9217953364301932e-01
Gamma_8_7 0
Gamma_8_8 8.0139451309478116e-01
Gamma_8_9 0
Gamma_8_10 0
Gamma_8_11 0
Gamma_8_12 0
Gamma_8_13 0
Gamma_8_14 0
Gamma_9_0 0
Gamma_9_1 0
Gamma_9_2 0
Gamma_9_3 5.6849715716559956e-01
Gamma_9_4 0
Gamma_9_5 0
Gamma_9_6 0
Gamma_9_7 -5.0880206148837315e-01
Gamma_9_8 0
Gamma_9_9 9.9219009576854045e-01
Gamma_9_10 0
Gamma_9_11 0
Gamma_9_12 0
Gamma_9_13 0
Gamma_9_14 0
Gamma_10_0 0
Gamma_10_1 0
Gamma_10_2 0
Gamma_10_3 0
Gamma_10_4 0
Gamma_10_5 0
Gamma_10_6 0
Gamma_10_7 4.5509523550606890e-01
Gamma_10_8 0
Gamma_10_9 0
Gamma_10_10 8.2516729994859872e-01
Gamma_10_11 0
Gamma_10_12 0
Gamma_10_13 0
Gamma_10_14 0
Gamma_11_0 0
Gamma_11_1 0
Gamma_11_2 0
Gamma_11_3 0
Gamma_11_4 -6.4406014558416846e-01
Gamma_11_5 0
Gamma_11_6 0
Gamma_11_7 6.5117831032713724e-01
Gamma_11_8 4.8609393752739566e-01
Gamma_11_9 0
Gamma_11_10 0
Gamma_11_11 7.8368374275295771e-01
Gamma_11_12 0
Gamma_11_13 0
Gamma_11_14 0
Gamma_12_0 0
Gamma_12_1 -8.1076870494967412e-01
Gamma_12_2 0
Gamma_12_3 0
Gamma_12_4 0
Gamma_12_5 0
Gamma_12_6 0
Gamma_12_7 0
Gamma_12_8 0
Gamma_12_9 -6.0405204440450022e-01
Gamma_12_10 0
Gamma_12_11 0
Gamma_12_12 9.6232601622253877e-01
Gamma_12_13 0
Gamma_12_14 0
Gamma_13_0 0
Gamma_13_1 5.0134000303004667e-01
Gamma_13_2 0
Gamma_13_3 6.0400560802647163e-01
Gamma_13_4 0
Gamma_13_5 0
Gamma_13_6 0
Gamma_13_7 0
Gamma_13_8 0
Gamma_13_9 0
Gamma_13_10 0
Gamma_13_11 0
Gamma_13_12 5.0610464992238990e-01
Gamma_13_13 8.3073899887480218e-01
Gamma_13_14 0
Gamma_14_0 0
Gamma_14_1 0
Gamma_14_2 0
Gamma_14_3 0
Gamma_14_4 0
Gamma_14_5 5.8001709442773208e-01
Gamma_14_6 0
Gamma_14_7 0
Gamma_14_8 0
Gamma_14_9 0
Gamma_14_10 0
Gamma_14_11 0
Gamma_14_12 0
Gamma_14_13 0
Gamma_14_14 1.0216712395974370e+00
psi_0 6
psi_1 6
psi_2 5
psi_3 4
psi_4 3
psi_5 4
psi_6 2
psi_7 3
psi_8 1
psi_9 2
psi_10 0
psi_11 0
psi_12 1
psi_13 0
psi_14 0
g_0_0 0
g_0_1 0
g_0_2 0
g_0_3 0
g_0_4 0
g_0_5 0
g_0_6 0
g_0_7 0
g_0_8 0
g_0_9 0
g_0_10 0
g_0_11 0
g_0_12 0
g_0_13 0
g_0_14 0
g_1_0 0
g_1_1 0
g_1_2 0
g_1_3 0
g_1_4 0
g_1_5 0
g_1_6 0
g_1_7 0
g_1_8 0
g_1_9 0
g_1_10 0
g_1_11 0
g_1_12 0
g_1_13 0
g_1_14 0
g_2_0 1
g_2_1 1
g_2_2 0
g_2_3 0
g_2_4 0
g_2_5 0
g_2_6 0
g_2_7 0
g_2_8 0
g_2_9 0
g_2_10 0
g_2_11 0
g_2_12 0
g_2_13 0
g_2_14 0
g_3_0 0
g_3_1 1
g_3_2 1
g_3_3 0
g_3_4 0
g_3_5 0
g_3_6 0
g_3_7 0
g_3_8 0
g_3_9 0
g_3_10 0
g_3_11 0
g_3_12 0
g_3_13 0
g_3_14 0
g_4_0 0
g_4_1 0
g_4_2 1
g_4_3 1
g_4_4 0
g_4_5 0
g_4_6 0
g_4_7 0
g_4_8 0
g_4_9 0
g_4_10 0
g_4_11 0
g_4_12 0
g_4_13 0
g_4_14 0
g_5_0 0
g_5_1 0
g_5_2 0
g_5_3 0
g_5_4 0
g_5_5 0
g_5_6 0
g_5_7 0
g_5_8 0
g_5_9 0
g_5_10 0
g_5_11 0
g_5_12 0
g_5_13 0
g_5_14 0
g_6_0 0
g_6_1 0
g_6_2 0
g_6_3 0
g_6_4 1
g_6_5 1
g_6_6 0
g_6_7 0
g_6_8 0
g_6_9 0
g_6_10 0
g_6_11 0
g_6_12 0
g_6_13 0
g_6_14 0
g_7_0 0
g_7_1 0
g_7_2 0
g_7_3 0
g_7_4 0
g_7_5 1
g_7_6 0
g_7_7 0
g_7_8 0
g_7_9 0
g_7_10 0
g_7_11 0
g_7_12 0
g_7_13 0
g_7_14 0
g_8_0 0
g_8_1 0
g_8_2 1
g_8_3 1
g_8_4 0
g_8_5 0
g_8_6 1
g_8_7 0
g_8_8 0
g_8_9 0
g_8_10 0
g_8_11 0
g_8_12 0
g_8_13 0
g_8_14 0
g_9_0 0
g_9_1 0
g_9_2 0
g_9_3 1
g_9_4 0
g_9_5 0
g_9_6 0
g_9_7 1
g_9_8 0
g_9_9 0
g_9_10 0
g_9_11 0
g_9_12 0
g_9_13 0
g_9_14 0
g_10_0 0
g_10_1 0
g_10_2 0
g_10_3 0
g_10_4 0
g_10_5 0
g_10_6 0
g_10_7 1
g_10_8 0
g_10_9 0
g_10_10 0
g_10_11 0
g_10_12 0
g_10_13 0
g_10_14 0
g_11_0 0
g_11_1 0
g_11_2 0
g_11_3 0
g_11_4 1
g_11_5 0
g_11_6 0
g_11_7 1
g_11_8 1
g_11_9 0
g_11_10 0
g_11_11 0
g_11_12 0
g_11_13 0
g_11_14 0
g_12_0 0
g_12_1 1
g_12_2 0
g_12_3 0
g_12_4 0
g_12_5 0
g_12_6 0
g_12_7 0
g_12_8 0
g_12_9 1
g_12_10 0
g_12_11 0
g_12_12 0
g_12_13 0
g_12_14 0
g_13_0 0
g_13_1 1
g_13_2 0
g_13_3 1
g_13_4 0
g_13_5 0
g_13_6 0
g_13_7 0
g_13_8 0
g_13_9 0
g_13_10 0
g_13_11 0
g_13_12 1
g_13_13 0
g_13_14 0
g_14_0 0
g_14_1 0
g_14_2 0
g_14_3 0
g_14_4 0
g_14_5 1
g_14_6 0
g_14_7 0
g_14_8 0
g_14_9 0
g_14_10 0
g_14_11 0
g_14_12 0
g_14_13 0
g_14_14 0
T_0 1.9836423398089664e-03
T_1 3.6596126407812335e-01
T_2 3.8565145065236095e-01
T_3 4.6237440719829692e-01
T_4 -1.4288910881418815e-02
T_5 3.2090406797756543e-01
T_6 -3.7904889955768795e-02
T_7 7.1809776948128956e-02
T_8 4.4280385490684182e-01
T_9 1.5681122513569790e-02
T_10 3.8433825077927963e-01
T_11 4.8749945872162925e-01
T_12 7.6803983051746627e-02
T_13 3.7087922847359778e-01
T_14 -4.2879513323725860e-02
